time,eth_xx,eth_yy,eth_zz,fth_xx,fth_yy,fth_zz,stress_zz,temperature
10,0.042140214085068,0.087851512069856,0.1912305364133,1.0412878699813,1.0842984017971,1.175781047996,-166.64875120091,4300
10.1,0.042574186622496,0.088793204369196,0.19344779412816,1.041704551802,1.0851665350251,1.177665312496,-166.40079051272,4340
10.2,0.043008506546372,0.089736405186194,0.19567216413264,1.0421214003621,1.0860353633158,1.1795525966506,-166.15124152406,4380
10.3,0.043443174134772,0.090681116937379,0.19790366924082,1.0425384157284,1.0869048872255,1.1814429052991,-165.9001402437,4420
10.4,0.043878189665995,0.091627342043149,0.20014233233993,1.0429555979676,1.0877751073114,1.1833362432884,-165.64752201907,4460
10.5,0.044313553418561,0.092575082927781,0.20238817639065,1.0433729471465,1.0886460241307,1.1852326154731,-165.39342154994,4500
10.6,0.044749265671215,0.093524342019433,0.20464122442729,1.0437904633318,1.0895176382413,1.1871320267159,-165.13787290283,4540
10.7,0.045185326702925,0.094475121750155,0.20690149955803,1.0442081465904,1.0903899502014,1.1890344818869,-164.88090952386,4580
10.8,0.045621736792882,0.095427424555893,0.20916902496522,1.0446259969892,1.0912629605699,1.1909399858643,-164.62256425236,4620
10.9,0.046058496220499,0.096381252876493,0.21144382390553,1.0450440145951,1.0921366699058,1.1928485435339,-164.36286933326,4660
11,0.046495605265414,0.097336609155713,0.21372591971024,1.0454621994749,1.0930110787688,1.1947601597896,-164.10185642973,4700
11.1,0.04693306420749,0.098293495841221,0.2160153357855,1.0458805516955,1.093886187719,1.1966748395329,-163.83955663533,4740
11.2,0.047370873326811,0.099251915384611,0.21831209561249,1.0462990713241,1.0947619973169,1.1985925876731,-163.57600048576,4780
11.3,0.047809032903689,0.1002118702414,0.22061622274776,1.0467177584274,1.0956385081234,1.2005134091277,-163.31121797043,4820
11.4,0.048247543218657,0.10117336287104,0.22292774082337,1.0471366130727,1.0965157206999,1.2024373088219,-163.04523854377,4860
11.5,0.048686404552474,0.10213639573693,0.22524667354724,1.0475556353268,1.0973936356084,1.2043642916886,-162.77809113619,4900
11.6,0.049125617186124,0.1031009713064,0.2275730447033,1.0479748252569,1.0982722534111,1.2062943626688,-162.50980416475,4940
11.7,0.049565181400816,0.10406709205074,0.22990687815177,1.0483941829301,1.0991515746709,1.2082275267116,-162.2404055436,4980
11.8,0.050005097477982,0.1050347604452,0.23224819782944,1.0488137084134,1.1000315999508,1.2101637887736,-161.96992269431,5020
11.9,0.050445365699283,0.10600397896901,0.23459702774985,1.0492334017742,1.1009123298147,1.2121031538197,-161.69838255579,5060
12,0.050885986346603,0.10697475010534,0.23695339200358,1.0496532630794,1.1017937648266,1.2140456268226,-161.4258115937,5100
12.1,0.051326959702051,0.10794707634135,0.23931731475848,1.0500732923963,1.102675905551,1.2159912127631,-161.15223581051,5140
12.2,0.051768286047963,0.10892096016821,0.24168882025993,1.0504934897923,1.103558752553,1.2179399166297,-160.8776807542,5180
12.3,0.052209965666902,0.10989640408104,0.24406793283108,1.0509138553344,1.1044423063982,1.2198917434191,-160.60217152749,5220
12.4,0.052651998841656,0.11087341057898,0.24645467687311,1.05133438909,1.1053265676523,1.2218466981361,-160.32573279688,5260
12.5,0.053094385855238,0.11185198216518,0.24884907686544,1.0517550911265,1.1062115368818,1.2238047857934,-160.04838880103,5300
12.6,0.053537126990891,0.11283212134678,0.25125115736605,1.0521759615111,1.1070972146535,1.2257660114117,-159.77016335908,5340
12.7,0.053980222532081,0.11381383063494,0.25366094301167,1.0525970003112,1.1079836015347,1.2277303800197,-159.49107987913,5380
12.8,0.054423672762503,0.11479711254486,0.25607845851807,1.0530182075942,1.1088706980932,1.2296978966544,-159.21116136606,5420
12.9,0.054867477966079,0.11578196959575,0.2585037286803,1.0534395834276,1.1097585048971,1.2316685663605,-158.93043042949,5460
13,0.055311638426959,0.11676840431087,0.26093677837295,1.0538611278788,1.1106470225151,1.2336423941912,-158.64890929137,5500
13.1,0.055756154429517,0.11775641921751,0.26337763255037,1.0542828410152,1.1115362515164,1.2356193852076,-158.36661979347,5540
13.2,0.05620102625836,0.11874601684701,0.26582631624699,1.0547047229043,1.1124261924703,1.2375995444787,-158.08358340473,5580
13.3,0.056646254198318,0.11973719973478,0.26828285457753,1.0551267736138,1.1133168459471,1.2395828770821,-157.79982122835,5620
13.4,0.057091838534451,0.12072997042027,0.27074727273727,1.0555489932111,1.1142082125171,1.241569388103,-157.5153540087,5660
13.5,0.057537779552048,0.12172433144702,0.27321959600231,1.0559713817638,1.1151002927513,1.2435590826352,-157.23020213843,5700
13.6,0.057984077536625,0.12272028536261,0.27569984972983,1.0563939393395,1.1159930872211,1.2455519657805,-156.94438566473,5740
13.7,0.058430732773927,0.12371783471875,0.27818805935835,1.0568166660059,1.1168865964983,1.2475480426487,-156.65792429619,5780
13.8,0.058877745549927,0.12471698207119,0.28068425040797,1.0572395618306,1.1177808211552,1.2495473183581,-156.37083740896,5820
13.9,0.059325116150829,0.12571772997982,0.28318844848068,1.0576626268814,1.1186757617646,1.251549798035,-156.08314405309,5860
14,0.059772844863064,0.12672008100858,0.28570067926058,1.0580858612259,1.1195714188997,1.2535554868139,-155.79486295869,5900
14.1,0.060220931973294,0.12772403772555,0.28822096851414,1.0585092649319,1.1204677931342,1.2555643898376,-155.50601254162,5940
14.2,0.060669377768408,0.12872960270293,0.29074934209052,1.0589328380671,1.1213648850423,1.2575765122572,-155.21661090951,5980
14.3,0.061118182535527,0.12973677851702,0.29328582592175,1.0593565806994,1.1222626951984,1.259591859232,-154.92667586762,6020
14.4,0.061567346562001,0.13074556774826,0.29583044602308,1.0597804928965,1.1231612241778,1.2616104359295,-154.63622492401,6060
14.5,0.06201687013541,0.1317559729812,0.2983832284932,1.0602045747264,1.1240604725558,1.2636322475255,-154.34527529532,6100
14.6,0.062466753543564,0.13276799680457,0.30094419951449,1.0606288262569,1.1249604409085,1.2656572992042,-154.05384391194,6140
14.7,0.062916997074504,0.13378164181122,0.30351338535336,1.0610532475559,1.1258611298124,1.2676855961581,-153.76194742336,6180
14.8,0.063367601016501,0.13479691059815,0.30609081236043,1.0614778386914,1.1267625398443,1.2697171435878,-153.46960220315,6220
14.9,0.063818565658057,0.13581380576654,0.30867650697088,1.0619025997313,1.1276646715815,1.2717519467026,-153.17682435403,6260
15,0.064269891287905,0.13683232992173,0.31127049570466,1.0623275307436,1.128567525602,1.2737900107197,-152.88362971267,6300
