time,e_zz,fp_xx,fp_zz,pk2,slip_increment_0,slip_increment_3,slip_increment_9,slip_resistance_0,slip_resistance_3,slip_resistance_9,stress_zz,tau_3,tau_9,total_twin_volume_fraction,twin_resistance_0,twin_tau_0
2.25,0.01131328125,0.99998166890745,1.0000072763407,1619.3221602883,0,1.3982399558443e-05,-1.3982399558442e-05,138.11673531712,288.49282821306,288.49282821306,1647.6188543578,233.02961208245,-233.02961208244,3.1476800901802e-09,1140.0000020718,571.80446367044
2.375,0.0119455078125,0.99996158426378,1.0000152489184,1708.704761615,0,3.693326132709e-05,-3.6933261327091e-05,138.11674789648,289.98658947834,289.98658947834,1740.2159494472,245.89227364843,-245.89227364843,4.817939694884e-09,1140.0000046453,603.36666399506
2.5,0.012578125,0.99991802324434,1.0000325415074,1796.7720891109,0,8.0106917136969e-05,-8.010691713697e-05,138.11679323566,293.36592274508,293.36592274508,1831.6200575073,258.56565987556,-258.56565987557,9.3814937437643e-09,1140.0000098264,634.464423416
