time,effective_strain_avg,wall_disloactions,cell_dislocations,temperature,vonmises_stress
0,0,0,0,0,0
2,1.5910121498256e-11,439999997857.22,5999999135424,900,633699.99993032
4,9.4384236053193e-11,439999987288.22,5999994871021.9,900,1267399.9999922
6,1.9848980724502e-10,439999973266.5,5999989213542,900,1901100.0000031
8,3.2526576963957e-10,439999959975,5999982849452.3,900,2534799.9999848
10,4.811535827544e-10,439999947458.09,5999975611454.6,900,3168499.9999968
