time,e_xx,e_yy,e_zz,fp_xx,fp_yy,fp_zz,pk2_zz,slip_increment_0,slip_increment_1,slip_resistance_0,slip_resistance_1,slip_resistance_2,stress_zz,tau_0,tau_1,tau_2
2.5,-0.00081249762263432,-0.00076073168978995,0.0025031254907636,0.99994138073794,0.99999686684793,1.0000617524141,298.58633189657,-6.4944283011901e-07,0.00026403313023981,143.13420869335,144.6754072233,143.12948699488,299.76764663618,-99.134112762435,135.34132650743,-36.207213744996
2.625,-0.00086984815724703,-0.00079186174126076,0.0026284462710591,0.9999139560857,0.99999539610966,1.0000906478046,310.36243737963,-1.3582539565713e-06,0.00050667758574767,143.20467356724,145.33579424287,143.1975342208,311.63900714409,-102.87867978954,140.44881636589,-37.570136576345
2.75,-0.00093781276144922,-0.00081856827526245,0.0027537832882272,0.99987093958928,0.99999307826459,1.0001359821461,320.1185045483,-2.3930803547374e-06,0.00079474096523647,143.33303439681,146.20606610671,143.32163826043,321.47706852224,-105.85835316821,144.50392436337,-38.645571195163
