time,e_zz,fp_xx,fp_zz,pk2,slip_resistance_0,slip_resistance_3,stress_zz,tau_3,tau_4,tau_5,tau_6
5,0.0050125,0.99999999999674,1.0000000000013,717.93445468241,138.1167269026,287.14539361059,723.48871212643,103.31482615262,103.31482615262,-103.31482615262,-103.31482615262
5.5,0.005515125,0.9999999999773,1.000000000009,789.92483947022,138.11672690261,287.14539497563,796.64959297836,113.67464944916,113.67464944916,-113.67464944917,-113.67464944917
6,0.006018,0.99999999986595,1.0000000000532,861.95102970116,138.11672690265,287.14540279337,869.95892781182,124.03962535137,124.03962535137,-124.03962535138,-124.03962535138
