time,strain_yy,stress_yy
0,0,0
0.0046875,0.00046875,93.75
0.009375,0.0009375,100.32689912827
0.0140625,0.00140625,100.67638773236
0.01875,0.001875,101.02506331119
0.0234375,0.00234375,101.37292774201
0.028125,0.0028125,101.71998289783
0.0328125,0.00328125,102.06623064734
0.0375,0.00375,102.41167285508
0.0421875,0.00421875,102.75631138123
0.046875,0.0046875,103.10014808183
0.0515625,0.00515625,103.44318480866
0.05625,0.005625,103.78542340928
0.0609375,0.00609375,104.12686572706
0.065625,0.0065625,104.46751360119
0.0703125,0.00703125,104.80736886664
0.075,0.0075,105.14643335423
0.0796875,0.00796875,105.48470889061
0.084375,0.0084375,105.82219729826
0.0890625,0.00890625,106.15890039552
0.09375,0.009375,106.4948199966
0.0984375,0.00984375,106.82995791145
0.103125,0.0096875,75.579957911451
0.1078125,0.00921875,-18.170042088549
0.1125,0.00875,-106.84811162389
0.1171875,0.00828125,-107.18242741398
0.121875,0.0078125,-107.51596522322
0.1265625,0.00734375,-107.84872684925
0.13125,0.006875,-108.18071408549
0.1359375,0.00640625,-108.51192872128
0.140625,0.0059375,-108.84237254187
0.1453125,0.00546875,-109.17204732845
0.15,0.005,-109.50095485818
0.1546875,0.00453125,-109.82909690413
0.159375,0.0040625,-110.15647523535
0.1640625,0.00359375,-110.48309161686
0.16875,0.003125,-110.80894780967
0.1734375,0.00265625,-111.13404557076
0.178125,0.0021875,-111.4583866531
0.1828125,0.00171875,-111.78197280569
0.1875,0.00125,-112.10480577353
0.1921875,0.00078124999999999,-112.42688729764
0.196875,0.00031249999999999,-112.74821911508
0.2015625,-0.00015625000000001,-113.06880295908
0.20625,-0.00062500000000001,-113.38864055837
0.2109375,-0.00109375,-113.70773363849
0.215625,-0.0015625,-114.02608392082
0.2203125,-0.00203125,-114.34369312246
0.225,-0.0025,-114.66056295686
0.2296875,-0.00296875,-114.97669513372
0.234375,-0.0034375,-115.29209135844
0.2390625,-0.00390625,-115.60675333308
0.24375,-0.004375,-115.92068275497
0.2484375,-0.00484375,-116.23388131855
0.253125,-0.0053125,-116.54635071373
0.2578125,-0.00578125,-116.85809262684
0.2625,-0.00625,-117.16910874028
0.2671875,-0.00671875,-117.47940073263
0.271875,-0.0071875,-117.78897027862
0.2765625,-0.00765625,-118.09781904918
0.28125,-0.008125,-118.40594871142
0.2859375,-0.00859375,-118.71336092865
0.290625,-0.0090625,-119.02005736038
0.2953125,-0.00953125,-119.32603966233
0.3,-0.01,-119.63130948645
0.3046875,-0.00953125,-25.88130948645
0.309375,-0.0090625,67.86869051355
0.3140625,-0.00859375,119.7677109216
0.31875,-0.008125,120.07195229786
0.3234375,-0.00765625,120.37548522365
0.328125,-0.0071875,120.67831133795
0.3328125,-0.00671875,120.98043227601
0.3375,-0.00625,121.28184966932
0.3421875,-0.00578125,121.58256514566
0.346875,-0.0053124999999999,121.88258032909
0.3515625,-0.004921875,122.13201075492
0.35625,-0.0046875,122.2813785707
0.3609375,-0.004453125,122.4305724592
0.365625,-0.00421875,122.57959262168
0.3703125,-0.003984375,122.7284392591
0.375,-0.00375,122.8771125721
0.3796875,-0.003515625,123.02561276161
0.384375,-0.00328125,123.17394002756
0.3890625,-0.003046875,123.32209457017
0.39375,-0.0028125,123.47007658929
0.3984375,-0.002578125,123.61788628455
0.403125,-0.00234375,123.76552385526
0.4078125,-0.002109375,123.91298950088
0.4125,-0.001875,124.06028342016
0.4171875,-0.001640625,124.20740581162
0.421875,-0.00140625,124.35435687409
0.4265625,-0.001171875,124.50113680567
0.43125,-0.00093749999999997,124.64774580435
0.4359375,-0.00070312499999997,124.79418406821
0.440625,-0.00046874999999996,124.94045179437
0.4453125,-0.00023437499999996,125.0865491806
0.45,7.215365457891e-17,125.2324764239
0.4546875,0.00046875000000007,125.52399101842
0.459375,0.00093750000000007,125.8148266131
0.4640625,0.0014062500000001,126.10498477968
0.46875,0.0018750000000001,126.39446708624
0.4734375,0.0023437500000001,126.6832750973
0.478125,0.0028125000000001,126.97141037383
0.4828125,0.0032812500000001,127.25887447319
0.4875,0.0037500000000001,127.54566894923
0.4921875,0.0042187500000001,127.8317953522
0.496875,0.0046875000000001,128.11725522882
0.5015625,0.0051562500000001,128.4020501223
0.50625,0.0056250000000001,128.68618157228
0.5109375,0.0060937500000001,128.9696511149
0.515625,0.0065625000000001,129.25246028292
0.5203125,0.0070312500000001,129.53461060508
0.525,0.0075000000000001,129.81610360746
0.5296875,0.0079687500000001,130.0969408118
0.534375,0.0084375,130.37712373703
0.5390625,0.00890625,130.65665389822
0.54375,0.009375,130.93553280709
0.5484375,0.00984375,131.2137619719
0.553125,0.00984375,131.21376197189
0.5578125,0.009609375,84.338761971888
0.5625,0.009375,37.463761971888
0.5671875,0.009140625,-9.4112380281112
0.571875,0.00890625,-56.286238028111
0.5765625,0.008671875,-103.16123802811
0.58125,0.0084375,-131.26949274878
0.5859375,0.008203125,-131.40821828803
0.590625,0.00796875,-131.54678221864
0.5953125,0.007734375,-131.68518472773
0.6,0.0075,-131.82342600204
0.6046875,0.007265625,-131.96150622849
0.609375,0.00703125,-132.09942559353
0.6140625,0.006796875,-132.23718428345
0.61875,0.0065625,-132.37478248432
0.6234375,0.006328125,-132.51222038204
0.628125,0.00609375,-132.64949816224
0.6328125,0.005859375,-132.78661601037
0.6375,0.005625,-132.92357411179
0.6421875,0.005390625,-133.06037265121
0.646875,0.00515625,-133.19701181364
0.6515625,0.0048437500000001,-133.37898510707
0.65625,0.0043750000000001,-133.65152102534
0.6609375,0.0039062500000001,-133.92342189163
0.665625,0.0034375000000001,-134.19468917711
0.6703125,0.0029687500000001,-134.4653243496
0.675,0.0025000000000001,-134.73532887353
0.6796875,0.0020312500000001,-135.00470420999
0.684375,0.0015625000000001,-135.27345181673
0.6890625,0.0010937500000001,-135.54157314817
0.69375,0.0006250000000001,-135.80906965551
0.6984375,0.0001562500000001,-136.07594278608
0.703125,-0.00031249999999989,-136.34219398476
0.7078125,-0.00078124999999989,-136.60782469252
0.7125,-0.0012499999999999,-136.8728363472
0.7171875,-0.0017187499999999,-137.13723038333
0.721875,-0.0021874999999999,-137.40100823202
0.7265625,-0.0026562499999999,-137.66417132159
0.73125,-0.0031249999999999,-137.92672107646
0.7359375,-0.0035937499999999,-138.18865891816
0.740625,-0.0040624999999999,-138.44998626479
0.7453125,-0.0045312499999998,-138.71070453133
0.75,-0.0049999999999998,-138.97081512945
0.7546875,-0.0054687499999998,-139.23031946761
0.759375,-0.0059374999999998,-139.48921895103
0.7640625,-0.0064062499999998,-139.74751498172
0.76875,-0.0068749999999998,-140.00520895841
0.7734375,-0.0073437499999998,-140.26230227694
0.778125,-0.0078124999999998,-140.51879632917
0.7828125,-0.0082812499999998,-140.77469250474
0.7875,-0.0087499999999998,-141.02999218952
0.7921875,-0.0092187499999998,-141.28469676633
0.796875,-0.0096874999999998,-141.53880761484
0.8015625,-0.0098437500000002,-141.6233137804
0.80625,-0.0093750000000002,-47.873313780403
0.8109375,-0.0089062500000002,45.876686219597
0.815625,-0.0084375000000002,139.6266862196
0.8203125,-0.0079687500000002,141.78715535802
0.825,-0.0075000000000002,142.04009492988
0.8296875,-0.0070312500000002,142.29244486551
0.834375,-0.0065625000000002,142.54420653202
0.8390625,-0.0060937500000002,142.7953812934
0.84375,-0.0056250000000002,143.04597051044
0.8484375,-0.0051562500000002,143.29597554092
0.853125,-0.0046875000000003,143.54539773943
0.8578125,-0.0042187500000003,143.79423845749
0.8625,-0.0037500000000003,144.04249904349
0.8671875,-0.0032812500000003,144.2901808428
0.871875,-0.0028125000000003,144.53728519748
0.8765625,-0.0023437500000003,144.78381344685
0.88125,-0.0018750000000003,145.02976692689
0.8859375,-0.0014062500000003,145.27514697065
0.890625,-0.00093750000000029,145.51995490805
0.8953125,-0.0004687500000003,145.76419206593
0.9,-2.99239799606e-16,146.00785976835
0.9046875,0.0004687499999997,146.25095933591
0.909375,0.00093749999999969,146.49349208636
0.9140625,0.0014062499999997,146.73545933472
0.91875,0.0018749999999997,146.97686239259
0.9234375,0.0023437499999997,147.21770256855
0.928125,0.0028124999999997,147.4579811685
0.9328125,0.0032812499999997,147.6976994951
0.9375,0.0037499999999997,147.93685884811
0.9421875,0.0042187499999997,148.17546052427
0.946875,0.0046874999999997,148.41350581736
0.9515625,0.0051562499999997,148.65099601818
0.95625,0.0056249999999997,148.88793241457
0.9609375,0.0060937499999996,149.12431629141
0.965625,0.0065624999999996,149.36014893063
0.9703125,0.0070312499999996,149.59543161123
0.975,0.0074999999999996,149.83016560924
0.9796875,0.0079687499999996,150.0643521978
0.984375,0.0084374999999996,150.2979926471
0.9890625,0.0089062499999996,150.53108822427
0.99375,0.0093749999999996,150.7636401941
0.9984375,0.0098437499999996,150.99564981763
1.003125,0.0096875000000004,119.74564981779
1.0078125,0.0092187500000004,25.995649817787
1.0125,0.0087500000000004,-67.754350182212
1.0171875,0.0082812500000004,-150.79022097362
1.021875,0.0078125000000004,-151.02216860638
1.0265625,0.0073437500000004,-151.25357529541
1.03125,0.0068750000000004,-151.48444229603
1.0359375,0.0064062500000004,-151.71477086073
1.040625,0.0059375000000004,-151.94456223907
1.0453125,0.0054687500000004,-152.17381767776
1.05,0.0050000000000004,-152.40253842065
1.0546875,0.0045312500000004,-152.63072570872
1.059375,0.0040625000000005,-152.85838078012
1.0640625,0.0035937500000005,-153.08550487012
1.06875,0.0031250000000005,-153.31209921117
1.0734375,0.0026562500000005,-153.53816503284
1.078125,0.0021875000000005,-153.7637035621
1.0828125,0.0017187500000005,-153.98871602273
1.0875,0.0012500000000005,-154.21320363595
1.0921875,0.00078125000000049,-154.43716762011
1.096875,0.00031250000000049,-154.66060919077
1.1015625,-0.0001562499999995,-154.88352956067
1.10625,-0.0006249999999995,-155.10592993979
1.1109375,-0.0010937499999995,-155.32781153527
1.115625,-0.0015624999999995,-155.54917555162
1.1203125,-0.0020312499999995,-155.77002319038
1.125,-0.0024999999999995,-155.99035565046
1.1296875,-0.0029687499999995,-156.21017412785
1.134375,-0.0034374999999995,-156.42947981631
1.1390625,-0.0039062499999995,-156.64827390607
1.14375,-0.0043749999999995,-156.86655758522
1.1484375,-0.0048437499999995,-157.0843320387
1.153125,-0.0053124999999995,-157.30159844914
1.1578125,-0.0057812499999995,-157.51835799619
1.1625,-0.0062499999999995,-157.73461185683
1.1671875,-0.0067187499999995,-157.95036120536
1.171875,-0.0071874999999995,-158.16560721335
1.1765625,-0.0076562499999994,-158.3803510497
1.18125,-0.0081249999999994,-158.5945938806
1.1859375,-0.0085937499999994,-158.80833686958
1.190625,-0.0090624999999994,-159.02158117746
1.1953125,-0.0095312499999994,-159.23432796242
1.2,-0.0099999999999994,-159.44657837997
1.2046875,-0.0095312500000006,-65.696578380198
1.209375,-0.0090625000000006,28.053421619801
1.2140625,-0.0085937500000006,121.8034216198
1.21875,-0.0081250000000006,159.3618346413
1.2234375,-0.0076562500000006,159.57378756575
1.228125,-0.0071875000000006,159.78524596659
1.2328125,-0.0067187500000006,159.9962109924
1.2375,-0.0062500000000006,160.20668378916
1.2421875,-0.0057812500000006,160.41666550018
1.246875,-0.0053125000000006,160.62615726614
1.2515625,-0.0048437500000006,160.8351602251
1.25625,-0.0043750000000006,161.04367551252
1.2609375,-0.0039062500000006,161.25170426122
1.265625,-0.0034375000000006,161.45924760141
1.2703125,-0.0029687500000007,161.66630666072
1.275,-0.0025000000000007,161.87288256418
1.2796875,-0.0020312500000007,162.07897643411
1.284375,-0.0015625000000007,162.28458939064
1.2890625,-0.0010937500000007,162.48972255077
1.29375,-0.00062500000000067,162.69437702929
1.2984375,-0.00015625000000068,162.89855393833
1.303125,0.00031249999999932,163.10225438744
1.3078125,0.00078124999999931,163.30547948365
1.3125,0.0012499999999993,163.50823033136
1.3171875,0.0017187499999993,163.71050803267
1.321875,0.0021874999999993,163.91231368679
1.3265625,0.0026562499999993,164.11364839061
1.33125,0.0031249999999993,164.31451323847
1.3359375,0.0035937499999993,164.51490932207
1.340625,0.0040624999999993,164.71483773099
1.3453125,0.0045312499999993,164.91429955172
1.35,0.0049999999999993,165.11329586862
1.3546875,0.0054687499999993,165.31182776347
1.359375,0.0059374999999993,165.50989631556
1.3640625,0.0064062499999993,165.70750260168
1.36875,0.0068749999999993,165.90464769615
1.3734375,0.0073437499999993,166.1013326708
1.378125,0.0078124999999992,166.29755859502
1.3828125,0.0082812499999992,166.49332653569
1.3875,0.0087499999999992,166.68863755728
1.3921875,0.0092187499999992,166.88349272178
1.396875,0.0096874999999992,167.07789308872
1.4015625,0.0098437500000008,167.14254196422
1.40625,0.0093750000000008,73.392541964226
1.4109375,0.0089062500000008,-20.357458035773
1.415625,0.0084375000000008,-114.10745803577
1.4203125,0.0079687500000008,-167.16225638527
1.425,0.0075000000000008,-167.35600610214
1.4296875,0.0070312500000008,-167.54930359092
1.434375,0.0065625000000008,-167.74214990281
1.4390625,0.0060937500000008,-167.93454608657
1.44375,0.0056250000000008,-168.12649318853
1.4484375,0.0051562500000008,-168.31799225258
1.453125,0.0046875000000008,-168.50904432036
1.4578125,0.0042187500000008,-168.69965043089
1.4625,0.0037500000000008,-168.88981162091
1.4671875,0.0032812500000008,-169.07952892477
1.471875,0.0028125000000008,-169.26880337441
1.4765625,0.0023437500000008,-169.4576359994
1.48125,0.0018750000000008,-169.64602782695
1.4859375,0.0014062500000009,-169.83397988188
1.490625,0.00093750000000086,-170.02149318664
1.4953125,0.00046875000000086,-170.20856876136
1.5,8.6649437625042e-16,-170.39520762378
